(set-info :smt-lib-version 2.6)
(set-info :category "crafted")
(set-logic QF_FFA)
(define-sort FF0 () (_ FiniteField 52435875175126190479447740508185965837690552500527637822603658699938581184513))
(declare-fun j () Bool)
(declare-fun b () Bool)
(declare-fun d () Bool)
(declare-fun c () Bool)
(declare-fun a () Bool)
(declare-fun l () Bool)
(declare-fun e () Bool)
(declare-fun f () Bool)
(declare-fun i () Bool)
(declare-fun k () Bool)
(declare-fun g () Bool)
(declare-fun h () Bool)
(declare-fun out () FF0)
(declare-fun _51 () FF0)
(declare-fun _50 () FF0)
(declare-fun _13 () FF0)
(declare-fun _49 () FF0)
(declare-fun _31 () FF0)
(declare-fun _48 () FF0)
(declare-fun _46 () FF0)
(declare-fun _47 () FF0)
(declare-fun _10 () FF0)
(declare-fun _9 () FF0)
(declare-fun _2 () FF0)
(declare-fun _45 () FF0)
(declare-fun _8 () FF0)
(declare-fun _44 () FF0)
(declare-fun _43 () FF0)
(declare-fun _42 () FF0)
(declare-fun _19 () FF0)
(declare-fun _18 () FF0)
(declare-fun _41 () FF0)
(declare-fun _6 () FF0)
(declare-fun _39 () FF0)
(declare-fun _33 () FF0)
(declare-fun _7 () FF0)
(declare-fun _38 () FF0)
(declare-fun _25 () FF0)
(declare-fun _24 () FF0)
(declare-fun _30 () FF0)
(declare-fun _29 () FF0)
(declare-fun _11 () FF0)
(declare-fun _28 () FF0)
(declare-fun _0 () FF0)
(declare-fun _27 () FF0)
(declare-fun _5 () FF0)
(declare-fun _4 () FF0)
(declare-fun _3 () FF0)
(declare-fun _1 () FF0)
(assert 
  (let ((let0 j))
  (let ((let1 (not let0)))
  (let ((let2 b))
  (let ((let3 (=> let2 let1)))
  (let ((let4 (not let3)))
  (let ((let5 d))
  (let ((let6 c))
  (let ((let7 a))
  (let ((let8 (ite let5 let7 let6)))
  (let ((let9 (ite let8 let2 let5)))
  (let ((let10 l))
  (let ((let11 e))
  (let ((let12 f))
  (let ((let13 (=> let12 let11)))
  (let ((let14 (or let13 let3 let7 let10 let9)))
  (let ((let15 (not let14)))
  (let ((let16 i))
  (let ((let17 k))
  (let ((let18 g))
  (let ((let19 h))
  (let ((let20 (= let19 let9)))
  (let ((let21 (ite let19 let16 let20)))
  (let ((let22 (or let13 let21 let18 let8 let0)))
  (let ((let23 (=> let22 let17)))
  (let ((let24 (=> let23 let16)))
  (let ((let25 (=> let6 let1)))
  (let ((let26 (or let25 let17)))
  (let ((let27 (or let26 let24 let15 let4)))
  (let ((let28 out))
  (let ((let29 (as ff1 FF0)))
  (let ((let30 (= let29 let28)))
  (let ((let31 (= let30 let27)))
  (let ((let32 (as ff0 FF0)))
  (let ((let33 (= let32 let28)))
  (let ((let34 (or let30 let33)))
  (let ((let35 (and let34 let31)))
  (let ((let36 _51))
  (let ((let37 (= let36 let28)))
  (let ((let38 (as ff52435875175126190479447740508185965837690552500527637822603658699938581184512 FF0)))
  (let ((let39 (ff.mul let36 let38)))
  (let ((let40 _50))
  (let ((let41 _13))
  (let ((let42 (ff.mul let41 let38)))
  (let ((let43 (ff.add let42 let40 let39 let29)))
  (let ((let44 (ff.add let42 let29)))
  (let ((let45 (ff.mul let40 let44)))
  (let ((let46 (= let45 let43)))
  (let ((let47 (ff.mul let40 let38)))
  (let ((let48 _49))
  (let ((let49 _31))
  (let ((let50 (ff.mul let49 let38)))
  (let ((let51 (ff.add let50 let48 let47 let29)))
  (let ((let52 (ff.add let50 let29)))
  (let ((let53 (ff.mul let48 let52)))
  (let ((let54 (= let53 let51)))
  (let ((let55 (ff.mul let48 let38)))
  (let ((let56 _48))
  (let ((let57 _46))
  (let ((let58 (ff.add let57 let56 let55)))
  (let ((let59 (ff.mul let56 let57)))
  (let ((let60 (= let59 let58)))
  (let ((let61 (ff.mul let56 let38)))
  (let ((let62 _47))
  (let ((let63 _10))
  (let ((let64 (ff.add let63 let62 let61)))
  (let ((let65 (ff.mul let62 let63)))
  (let ((let66 (= let65 let64)))
  (let ((let67 (as ff2 FF0)))
  (let ((let68 (ff.mul let62 let38)))
  (let ((let69 _9))
  (let ((let70 (ff.mul let69 let38)))
  (let ((let71 _2))
  (let ((let72 (ff.mul let71 let38)))
  (let ((let73 (ff.add let72 let70 let68 let67)))
  (let ((let74 (ff.add let70 let29)))
  (let ((let75 (ff.add let72 let29)))
  (let ((let76 (ff.mul let75 let74)))
  (let ((let77 (= let76 let73)))
  (let ((let78 (ff.mul let57 let38)))
  (let ((let79 _45))
  (let ((let80 (ff.mul let79 let38)))
  (let ((let81 _8))
  (let ((let82 (ff.add let81 let80 let78 let29)))
  (let ((let83 (ff.add let80 let29)))
  (let ((let84 (ff.mul let83 let81)))
  (let ((let85 (= let84 let82)))
  (let ((let86 _44))
  (let ((let87 (ff.mul let86 let38)))
  (let ((let88 (ff.add let63 let87 let80 let29)))
  (let ((let89 (ff.add let87 let29)))
  (let ((let90 (ff.mul let89 let63)))
  (let ((let91 (= let90 let88)))
  (let ((let92 _43))
  (let ((let93 (ff.add let69 let92 let87)))
  (let ((let94 (ff.mul let92 let69)))
  (let ((let95 (= let94 let93)))
  (let ((let96 (ff.mul let92 let38)))
  (let ((let97 _42))
  (let ((let98 _19))
  (let ((let99 _18))
  (let ((let100 (ff.add let99 let98 let97 let96)))
  (let ((let101 (ff.add let99 let98)))
  (let ((let102 (ff.mul let97 let101)))
  (let ((let103 (= let102 let100)))
  (let ((let104 (ff.mul let97 let38)))
  (let ((let105 _41))
  (let ((let106 _6))
  (let ((let107 (ff.add let106 let105 let104)))
  (let ((let108 (ff.mul let105 let106)))
  (let ((let109 (= let108 let107)))
  (let ((let110 _39))
  (let ((let111 _33))
  (let ((let112 (ff.mul let111 let38)))
  (let ((let113 (ff.add let112 let29)))
  (let ((let114 _7))
  (let ((let115 (ff.mul let114 let38)))
  (let ((let116 (ff.add let115 let29)))
  (let ((let117 (ff.mul let116 let113)))
  (let ((let118 (= let117 let110)))
  (let ((let119 _38))
  (let ((let120 (ff.mul let114 let81)))
  (let ((let121 (= let120 let119)))
  (let ((let122 _25))
  (let ((let123 (ff.mul let122 let38)))
  (let ((let124 _24))
  (let ((let125 (ff.mul let124 let38)))
  (let ((let126 (ff.add let114 let125 let123)))
  (let ((let127 (ff.mul let126 let126)))
  (let ((let128 (= let127 let111)))
  (let ((let129 _30))
  (let ((let130 (ff.add let124 let122 let129 let50)))
  (let ((let131 (ff.add let124 let122)))
  (let ((let132 (ff.mul let129 let131)))
  (let ((let133 (= let132 let130)))
  (let ((let134 (ff.mul let129 let38)))
  (let ((let135 _29))
  (let ((let136 _11))
  (let ((let137 (ff.add let136 let135 let134)))
  (let ((let138 (ff.mul let135 let136)))
  (let ((let139 (= let138 let137)))
  (let ((let140 (ff.mul let135 let38)))
  (let ((let141 _28))
  (let ((let142 _0))
  (let ((let143 (ff.add let142 let141 let140)))
  (let ((let144 (ff.mul let141 let142)))
  (let ((let145 (= let144 let143)))
  (let ((let146 (ff.mul let141 let38)))
  (let ((let147 _27))
  (let ((let148 (ff.add let41 let147 let146)))
  (let ((let149 (ff.mul let147 let41)))
  (let ((let150 (= let149 let148)))
  (let ((let151 (ff.mul let147 let38)))
  (let ((let152 _5))
  (let ((let153 (ff.mul let152 let38)))
  (let ((let154 _4))
  (let ((let155 (ff.add let154 let153 let151 let29)))
  (let ((let156 (ff.add let153 let29)))
  (let ((let157 (ff.mul let156 let154)))
  (let ((let158 (= let157 let155)))
  (let ((let159 _3))
  (let ((let160 (ff.mul let98 let38)))
  (let ((let161 (ff.mul let99 let38)))
  (let ((let162 (ff.add let161 let160 let29)))
  (let ((let163 (ff.mul let162 let159)))
  (let ((let164 (= let163 let122)))
  (let ((let165 _1))
  (let ((let166 (ff.mul let101 let165)))
  (let ((let167 (= let166 let124)))
  (let ((let168 (ff.mul let159 let38)))
  (let ((let169 (ff.add let168 let29)))
  (let ((let170 (ff.mul let169 let71)))
  (let ((let171 (= let170 let98)))
  (let ((let172 (ff.mul let159 let142)))
  (let ((let173 (= let172 let99)))
  (let ((let174 (ff.mul let165 let38)))
  (let ((let175 (ff.add let174 let70 let42 let67)))
  (let ((let176 (ff.add let174 let29)))
  (let ((let177 (ff.mul let176 let74)))
  (let ((let178 (= let177 let175)))
  (let ((let179 (ff.mul let136 let136)))
  (let ((let180 (= let179 let136)))
  (let ((let181 (ff.mul let63 let63)))
  (let ((let182 (= let181 let63)))
  (let ((let183 (ff.mul let69 let69)))
  (let ((let184 (= let183 let69)))
  (let ((let185 (ff.mul let81 let81)))
  (let ((let186 (= let185 let81)))
  (let ((let187 (ff.mul let114 let114)))
  (let ((let188 (= let187 let114)))
  (let ((let189 (ff.mul let106 let106)))
  (let ((let190 (= let189 let106)))
  (let ((let191 (ff.mul let152 let152)))
  (let ((let192 (= let191 let152)))
  (let ((let193 (ff.mul let154 let154)))
  (let ((let194 (= let193 let154)))
  (let ((let195 (ff.mul let159 let159)))
  (let ((let196 (= let195 let159)))
  (let ((let197 (ff.mul let71 let71)))
  (let ((let198 (= let197 let71)))
  (let ((let199 (ff.mul let165 let165)))
  (let ((let200 (= let199 let165)))
  (let ((let201 (ff.mul let142 let142)))
  (let ((let202 (= let201 let142)))
  (let ((let203 (and let202 let200 let198 let196 let194 let192 let190 let188 let186 let184 let182 let180 let178 let173 let171 let167 let164 let158 let150 let145 let139 let133 let128 let121 let118 let109 let103 let95 let91 let85 let77 let66 let60 let54 let46 let37)))
  (let ((let204 (ite let16 let29 let32)))
  (let ((let205 (= let81 let204)))
  (let ((let206 (ite let10 let29 let32)))
  (let ((let207 (= let136 let206)))
  (let ((let208 (ite let19 let29 let32)))
  (let ((let209 (= let114 let208)))
  (let ((let210 (ite let11 let29 let32)))
  (let ((let211 (= let154 let210)))
  (let ((let212 (ite let18 let29 let32)))
  (let ((let213 (= let106 let212)))
  (let ((let214 (ite let12 let29 let32)))
  (let ((let215 (= let152 let214)))
  (let ((let216 (ite let2 let29 let32)))
  (let ((let217 (= let165 let216)))
  (let ((let218 (ite let17 let29 let32)))
  (let ((let219 (= let63 let218)))
  (let ((let220 (ite let6 let29 let32)))
  (let ((let221 (= let71 let220)))
  (let ((let222 (ite let5 let29 let32)))
  (let ((let223 (= let159 let222)))
  (let ((let224 (ite let7 let29 let32)))
  (let ((let225 (= let142 let224)))
  (let ((let226 (ite let0 let29 let32)))
  (let ((let227 (= let69 let226)))
  (let ((let228 (and let227 let225 let223 let221 let219 let217 let215 let213 let211 let209 let207 let205)))
  (let ((let229 (and let228 let203)))
  (let ((let230 (=> let229 let35)))
  (let ((let231 (not let230)))
  let231
))))))))))))))))))))))))))))))))))))))))))))))))))))))))))))))))))))))))))))))))))))))))))))))))))))))))))))))))))))))))))))))))))))))))))))))))))))))))))))))))))))))))))))))))))))))))))))))))))))))))))))))))))))))))))))))))))))))))
)
(check-sat)
